&INPUTPP
    prefix  = 'zno_pure_32',
    outdir  = './tmp/',
    filplot = 'zno_density'
    plot_num= 0
 /
 &PLOT
    nfile = 1
    filepp(1) = 'zno_density'
    weight(1) = 1.0
    iflag = 3
    output_format = 5
    fileout = 'zno_super_32.xsf'
 /
