&CONTROL
    calculation = 'scf'
    prefix = 'zno_pure_32'
    outdir = './tmp/'
    pseudo_dir = '../pseudo/'
    verbosity = 'high'
 /

&SYSTEM
    ibrav = 4
    A = 6.1416
    C = 9.8354
    nat = 32
    ntyp = 2
    ecutwfc = 40.0
    ecutrho = 320.0
    occupations = 'smearing'
    smearing = 'mv'
    degauss = 0.01
 /

&ELECTRONS
    conv_thr = 1.0d-8
    mixing_beta = 0.7
 /

ATOMIC_SPECIES
   Zn 65.38 Zn.UPF
   O 16.00 O.UPF

ATOMIC_POSITIONS (crystal)
Zn 0.16666650 0.33333350 0.00053205
Zn 0.16666650 0.33333350 0.50053205
Zn 0.16666650 0.83333350 0.00053205
Zn 0.16666650 0.83333350 0.50053205
Zn 0.66666650 0.33333350 0.00053205
Zn 0.66666650 0.33333350 0.50053205
Zn 0.66666650 0.83333350 0.00053205
Zn 0.66666650 0.83333350 0.50053205
Zn 0.33333350 0.16666650 0.25053205
Zn 0.33333350 0.16666650 0.75053205
Zn 0.33333350 0.66666650 0.25053205
Zn 0.33333350 0.66666650 0.75053205
Zn 0.83333350 0.16666650 0.25053205
Zn 0.83333350 0.16666650 0.75053205
Zn 0.83333350 0.66666650 0.25053205
Zn 0.83333350 0.66666650 0.75053205
O  0.16666650 0.33333350 0.19046795
O  0.16666650 0.33333350 0.69046795
O  0.16666650 0.83333350 0.19046795
O  0.16666650 0.83333350 0.69046795
O  0.66666650 0.33333350 0.19046795
O  0.66666650 0.33333350 0.69046795
O  0.66666650 0.83333350 0.19046795
O  0.66666650 0.83333350 0.69046795
O  0.33333350 0.16666650 0.44046795
O  0.33333350 0.16666650 0.94046795
O  0.33333350 0.66666650 0.44046795
O  0.33333350 0.66666650 0.94046795
O  0.83333350 0.16666650 0.44046795
O  0.83333350 0.16666650 0.94046795
O  0.83333350 0.66666650 0.44046795
O  0.83333350 0.66666650 0.94046795

K_POINTS (automatic)
 4 4 4 0 0 0
