&DOS
  prefix = 'zno_prim',
  outdir = './tmp/',
  fildos = 'zno_prim.dos',
  Emin = -10.0, 
  Emax = 20.0, 
  DeltaE = 0.05
/
