&CONTROL
    calculation = 'scf'
    prefix = 'zno_doped'
    outdir = './tmp/'
    pseudo_dir = '../pseudo/'
    verbosity = 'high'
 /

&SYSTEM
    ibrav = 0
    nat = 32
    ntyp = 3
    ecutwfc = 40.0
    ecutrho = 320.0
    occupations = 'smearing'
    smearing = 'gaussian'
    degauss = 0.01
 /

&ELECTRONS
    conv_thr = 1.0d-8
    mixing_beta = 0.7
 /

ATOMIC_SPECIES
   Zn  65.38  Zn.UPF
   O   16.00  O.UPF
   Ca  40.08  Ca.UPF

CELL_PARAMETERS {angstrom}
   6.5127406120    0.0000000000    0.0000000000
  -3.2563703060    5.6401988183    0.0000000000
   0.0000000000    0.0000000000   10.4796237946

ATOMIC_POSITIONS (crystal)
Ca   0.16666650  0.33333350  0.00053205     
Zn   0.16666650  0.33333350  0.50053205
Zn   0.16666650  0.83333350  0.00053205
Zn   0.16666650  0.83333350  0.50053205
Zn   0.66666650  0.33333350  0.00053205
Zn   0.66666650  0.33333350  0.50053205
Zn   0.66666650  0.83333350  0.00053205
Zn   0.66666650  0.83333350  0.50053205
Zn   0.33333350  0.16666650  0.25053205
Zn   0.33333350  0.16666650  0.75053205
Zn   0.33333350  0.66666650  0.25053205
Zn   0.33333350  0.66666650  0.75053205
Zn   0.83333350  0.16666650  0.25053205
Zn   0.83333350  0.16666650  0.75053205
Zn   0.83333350  0.66666650  0.25053205
Zn   0.83333350  0.66666650  0.75053205
O    0.16666650  0.33333350  0.19046795
O    0.16666650  0.33333350  0.69046795
O    0.16666650  0.83333350  0.19046795
O    0.16666650  0.83333350  0.69046795
O    0.66666650  0.33333350  0.19046795
O    0.66666650  0.33333350  0.69046795
O    0.66666650  0.83333350  0.19046795
O    0.66666650  0.83333350  0.69046795
O    0.33333350  0.16666650  0.44046795
O    0.33333350  0.16666650  0.94046795
O    0.33333350  0.66666650  0.44046795
O    0.33333350  0.66666650  0.94046795
O    0.83333350  0.16666650  0.44046795
O    0.83333350  0.16666650  0.94046795
O    0.83333350  0.66666650  0.44046795
O    0.83333350  0.66666650  0.94046795

K_POINTS (automatic)
 4 4 4 0 0 0
